words_hard_train/5747.qaiger
aag 82 15 0 1 67
2
4
8
10
16
20
28
30
34
38
42
52
60
130
140
164
6 3 5
12 9 11
14 6 12
18 14 17
22 19 20
24 18 21
26 23 25
32 28 30
36 32 34
40 37 39
44 41 42
46 40 43
48 45 47
50 26 49
54 24 53
56 25 52
58 55 57
62 47 60
64 46 61
66 63 65
68 58 67
70 51 69
72 27 48
74 36 38
76 75 41
78 15 16
80 79 19
82 76 81
84 73 83
86 33 35
88 87 37
90 89 4
92 91 15
94 28 9
96 95 10
98 96 31
100 99 33
102 101 13
104 88 5
106 102 105
108 92 107
110 77 80
112 109 111
114 84 113
116 70 115
118 59 66
120 117 119
122 12 53
124 5 21
126 124 17
128 122 126
132 128 131
134 129 130
136 133 135
138 120 137
142 64 141
144 65 140
146 143 145
148 128 2
150 147 148
152 138 151
154 121 136
156 150 154
158 153 157
160 146 149
162 160 155
164 158 163
i0 2 y1[0]
i1 2 y1[3]
i2 2 y1[1]
i3 2 y1[2]
i4 2 y1[4]
i5 2 y1[5]
i6 1 x2[0]
i7 1 x2[1]
i8 1 x2[2]
i9 1 x2[3]
i10 1 x2[4]
i11 2 y1[6]
i12 1 x2[5]
i13 2 y1[7]
i14 1 x2[6]
o0 bv[0]
c
simplified
  <=
    subtract
      1
      2 y1
    subtract
      -243
      << 1
        1 x2
