words_hard_train/5747.qaiger.qdimacs
p cnf 82 202
a 70 14 15 17 19 21 30 0
e 1 2 3 4 5 6 7 8 9 10 11 12 13 16 18 20 22 23 24 25 26 27 28 29 31 32 33 34 35 36 37 38 39 40 41 42 43 44 45 46 47 48 49 50 51 52 53 54 55 56 57 58 59 60 61 62 63 64 65 66 67 68 69 71 72 73 74 75 76 77 78 79 80 81 82 0
1 2 3 0
-1 -3 0
-2 -3 0
4 5 6 0
-4 -6 0
-5 -6 0
-3 -6 7 0
3 -7 0
6 -7 0
-7 8 9 0
7 -9 0
-8 -9 0
9 -10 11 0
-9 -11 0
10 -11 0
-9 10 12 0
9 -12 0
-10 -12 0
11 12 13 0
-11 -13 0
-12 -13 0
-14 -15 16 0
14 -16 0
15 -16 0
-16 -17 18 0
16 -18 0
17 -18 0
18 19 20 0
-18 -20 0
-19 -20 0
20 -21 22 0
-20 -22 0
21 -22 0
-20 21 23 0
20 -23 0
-21 -23 0
22 23 24 0
-22 -24 0
-23 -24 0
-13 24 25 0
13 -25 0
-24 -25 0
-12 26 27 0
12 -27 0
-26 -27 0
12 -26 28 0
-12 -28 0
26 -28 0
27 28 29 0
-27 -29 0
-28 -29 0
23 -30 31 0
-23 -31 0
30 -31 0
-23 30 32 0
23 -32 0
-30 -32 0
31 32 33 0
-31 -33 0
-32 -33 0
-29 33 34 0
29 -34 0
-33 -34 0
25 34 35 0
-25 -35 0
-34 -35 0
13 -24 36 0
-13 -36 0
24 -36 0
-18 -19 37 0
18 -37 0
19 -37 0
37 20 38 0
-37 -38 0
-20 -38 0
7 -8 39 0
-7 -39 0
8 -39 0
39 9 40 0
-39 -40 0
-9 -40 0
-38 40 41 0
38 -41 0
-40 -41 0
36 41 42 0
-36 -42 0
-41 -42 0
16 17 43 0
-16 -43 0
-17 -43 0
43 18 44 0
-43 -44 0
-18 -44 0
44 -2 45 0
-44 -45 0
2 -45 0
45 7 46 0
-45 -46 0
-7 -46 0
-14 4 47 0
14 -47 0
-4 -47 0
47 -5 48 0
-47 -48 0
5 -48 0
-48 15 49 0
48 -49 0
-15 -49 0
49 16 50 0
-49 -50 0
-16 -50 0
50 6 51 0
-50 -51 0
-6 -51 0
-44 2 52 0
44 -52 0
-2 -52 0
-51 52 53 0
51 -53 0
-52 -53 0
-46 53 54 0
46 -54 0
-53 -54 0
38 -40 55 0
-38 -55 0
40 -55 0
54 55 56 0
-54 -56 0
-55 -56 0
-42 56 57 0
42 -57 0
-56 -57 0
-35 57 58 0
35 -58 0
-57 -58 0
29 -33 59 0
-29 -59 0
33 -59 0
58 59 60 0
-58 -60 0
-59 -60 0
-6 26 61 0
6 -61 0
-26 -61 0
2 10 62 0
-2 -62 0
-10 -62 0
-62 8 63 0
62 -63 0
-8 -63 0
-61 -63 64 0
61 -64 0
63 -64 0
-64 65 66 0
64 -66 0
-65 -66 0
64 -65 67 0
-64 -67 0
65 -67 0
66 67 68 0
-66 -68 0
-67 -68 0
-60 68 69 0
60 -69 0
-68 -69 0
-32 70 71 0
32 -71 0
-70 -71 0
32 -70 72 0
-32 -72 0
70 -72 0
71 72 73 0
-71 -73 0
-72 -73 0
-64 -1 74 0
64 -74 0
1 -74 0
73 -74 75 0
-73 -75 0
74 -75 0
-69 75 76 0
69 -76 0
-75 -76 0
60 -68 77 0
-60 -77 0
68 -77 0
-75 -77 78 0
75 -78 0
77 -78 0
76 78 79 0
-76 -79 0
-78 -79 0
-73 74 80 0
73 -80 0
-74 -80 0
-80 77 81 0
80 -81 0
-77 -81 0
-79 81 82 0
79 -82 0
-81 -82 0
82 0
